
Gurobi 7.0.1 (win64) logging started 04/01/17 11:27:41

Changed value of parameter LogFile to log_LPIP_prov_code_7_8_9.log
   Prev: gurobi.log  Default: 

Gurobi 7.0.1 (win64) logging started 04/01/17 11:27:41

Changed value of parameter LogFile to log_LPIP_prov_code_7_8_9.log
   Prev: gurobi.log  Default: 

Gurobi 7.0.1 (win64) logging started 04/01/17 11:31:20

Changed value of parameter LogFile to log_LPIP_prov_code_7_8_9.log
   Prev: gurobi.log  Default: 

Gurobi 7.0.1 (win64) logging started 04/01/17 11:31:20

Changed value of parameter LogFile to log_LPIP_prov_code_7_8_9.log
   Prev: gurobi.log  Default: 
Optimize a model with 5920 rows, 282021 columns and 564476 nonzeros
Coefficient statistics:
  Matrix range     [1e+00, 3e+03]
  Objective range  [5e-02, 2e+02]
  Bounds range     [1e+00, 1e+00]
  RHS range        [1e+00, 6e+00]

Concurrent LP optimizer: dual simplex and barrier
Showing barrier log only...

Presolve removed 197 rows and 0 columns
Presolve time: 0.24s
Presolved: 5723 rows, 282021 columns, 564279 nonzeros

Ordering time: 0.01s

Barrier statistics:
 AA' NZ     : 2.825e+05
 Factor NZ  : 3.663e+05 (roughly 120 MBytes of memory)
 Factor Ops : 3.925e+07 (less than 1 second per iteration)
 Threads    : 1

Barrier performed 0 iterations in 0.38 seconds
Barrier solve interrupted - model solved by another algorithm


Solved with dual simplex
Solved in 50 iterations and 0.40 seconds
Optimal objective  1.061994580e+05
Optimize a model with 5920 rows, 282021 columns and 564476 nonzeros
Variable types: 0 continuous, 282021 integer (282021 binary)
Coefficient statistics:
  Matrix range     [1e+00, 3e+03]
  Objective range  [5e-02, 2e+02]
  Bounds range     [1e+00, 1e+00]
  RHS range        [1e+00, 6e+00]
Presolve removed 197 rows and 0 columns
Presolve time: 0.80s
Presolved: 5723 rows, 282021 columns, 564279 nonzeros

MIP start did not produce a new incumbent solution
MIP start violates constraint R2538 by 24.000000000

Variable types: 0 continuous, 282021 integer (282021 binary)
Found heuristic solution: objective 486781.71777

Root simplex log...

Iteration    Objective       Primal Inf.    Dual Inf.      Time
       0    0.0000000e+00   5.050000e+03   0.000000e+00     59s
    5140    1.0619946e+05   0.000000e+00   0.000000e+00     59s

Root relaxation: objective 1.061995e+05, 5140 iterations, 0.09 seconds

    Nodes    |    Current Node    |     Objective Bounds      |     Work
 Expl Unexpl |  Obj  Depth IntInf | Incumbent    BestBd   Gap | It/Node Time

     0     0 106199.458    0   79 486781.718 106199.458  78.2%     -   59s
Another try with MIP start
     0     0 106199.458    0   79 486781.718 106199.458  78.2%     -   80s
     0     0 106199.458    0   79 486781.718 106199.458  78.2%     -  118s
     0     0 106199.458    0   79 486781.718 106199.458  78.2%     -  138s
     0     0 106199.458    0   79 486781.718 106199.458  78.2%     -  159s
     0     0 106199.458    0   79 486781.718 106199.458  78.2%     -  180s
     0     0 106199.458    0   79 486781.718 106199.458  78.2%     -  200s
     0     0 118691.271    0 2026 486781.718 118691.271  75.6%     -  201s
     0     0 118691.271    0 2026 486781.718 118691.271  75.6%     -  240s
     0     0 118691.271    0 2026 486781.718 118691.271  75.6%     -  258s
     0     0 118691.271    0 2026 486781.718 118691.271  75.6%     -  276s
H    0     0                    256526.19322 118691.271  53.7%     -  294s
     0     0 118691.271    0 2026 256526.193 118691.271  53.7%     -  313s
     0     0 120619.880    0 2612 256526.193 120619.880  53.0%     -  336s
     0     0 120619.880    0 2612 256526.193 120619.880  53.0%     -  356s
     0     0 120619.880    0 2612 256526.193 120619.880  53.0%     -  374s
     0     0 120619.880    0 2612 256526.193 120619.880  53.0%     -  392s
     0     0 120619.880    0 2612 256526.193 120619.880  53.0%     -  411s
H    0     0                    154078.59402 120619.880  21.7%     -  430s
     0     2 121363.350    0 3478 154078.594 121363.350  21.2%     -  434s
     1     4 122681.583    1 3526 154078.594 122681.583  20.4%   382  436s
     7    10 123405.037    3 3717 154078.594 122710.199  20.4%   342  440s
    17    20 126485.159    6 4315 154078.594 122710.199  20.4%   299  445s
    25    27 126415.131    8 4201 154078.594 122710.199  20.4%   298  450s
    30    31 127261.945   11 3301 154078.594 122710.199  20.4%   302  456s
    54    57 130720.071   22 3284 154078.594 122710.199  20.4%   239  460s
    66    69 141611.720   26 3342 154078.594 122710.199  20.4%   242  465s
    73    73 134494.579   28 3898 154078.594 122710.199  20.4%   268  471s
    76    76 135847.233   30 3536 154078.594 122710.199  20.4%   278  475s
    93    94 138210.683   35 3031 154078.594 122710.199  20.4%   281  480s
   110   111 140610.161   48 2401 154078.594 122710.199  20.4%   265  487s
   133   131 142088.289   66 1975 154078.594 122710.199  20.4%   250  492s
   141   140 142482.129   71 2053 154078.594 122710.199  20.4%   251  525s
   143   141 142619.254   72 2049 154078.594 122710.199  20.4%   248  570s
   172   168 143042.299   45 2776 154078.594 122710.199  20.4%   215  592s
   175   169 144913.302   98 2039 154078.594 122710.199  20.4%   216  596s
   199   194 144925.095  111 2039 154078.594 122710.199  20.4%   200  639s
   222   216 144927.613  123 1907 154078.594 122710.199  20.4%   192  643s
   231   223 145013.456  128 1903 154078.594 122710.199  20.4%   195  646s
   268   258 145047.701  140 1907 154078.594 122710.199  20.4%   174  670s
   298   290 145080.283  142 1905 154078.594 122710.199  20.4%   161  692s
   335   323 145114.835  148 1887 154078.594 122710.199  20.4%   150  715s
H  393   366                    151726.08649 122710.199  19.1%   134  760s
H  393   366                    151699.66020 122710.199  19.1%   134  781s
   415   383 145560.114  167 1882 151699.660 122710.199  19.1%   129  787s
   435   397 146098.246  182 1188 151699.660 122710.199  19.1%   131  790s
   536   493 146108.676  275 1164 151699.660 122710.199  19.1%   111  795s
*  537   239             276    146148.53383 122710.199  16.0%   111  815s
   572   243 125850.223    3 4681 146148.534 123514.520  15.5%   115  821s
   594   258 130736.843   11 3590 146148.534 123514.520  15.5%   121  829s
   609   267 133039.231   14 4121 146148.534 123514.520  15.5%   122  833s
   629   274 136649.609   16 3860 146148.534 123514.520  15.5%   123  835s
   644   290 137981.330   20 3538 146148.534 123514.520  15.5%   125  840s
   652   296     cutoff   25      146148.534 123514.520  15.5%   128  845s
   682   315 128339.879    9 3915 146148.534 124276.113  15.0%   131  852s
   691   327 132449.871   11 4115 146148.534 124276.113  15.0%   133  855s
   703   330 132224.636   15 3356 146148.534 124276.113  15.0%   139  861s
   712   333     cutoff   16      146148.534 124276.113  15.0%   144  865s
   727   346 126681.385    7 2612 146148.534 124276.113  15.0%   151  935s
H  728   329                    141630.24353 141208.532  0.30%   151  990s
   729   329 141208.532   12 2298 141630.244 141208.532  0.30%   150 1000s
   730   330 141242.799   10 2260 141630.244 141242.799  0.27%   150 1008s
   732   333 141630.244  119 2612 141630.244 141242.799  0.27%   187 1016s
   734   334 141242.799   16 2298 141630.244 141242.799  0.27%   187 1020s
   735   335 141630.244   97 1619 141630.244 141289.602  0.24%   187 1042s
   737   336 141630.244   28 1621 141630.244 141296.659  0.24%   186 1046s
   738   337 141630.244   49 2606 141630.244 141299.463  0.23%   186 1050s
   739   338 141306.248   40 2606 141630.244 141302.267  0.23%   186 1073s
   740   338 141630.244   36 2606 141630.244 141303.744  0.23%   185 1091s
   741   339 141309.897   15 2610 141630.244 141309.897  0.23%   185 1097s
   742   340 141314.162   17 2613 141630.244 141314.162  0.22%   185 1121s
   743   340 141314.350   23 2614 141630.244 141314.350  0.22%   185 1145s
   744   341 141630.244   32 2614 141630.244 141316.099  0.22%   184 1170s
   745   342 141317.140   13 2610 141630.244 141317.140  0.22%   184 1196s
   747   343 141323.537    7 2619 141630.244 141323.537  0.22%   184 1223s
   748   344 141323.562    9 2615 141630.244 141323.562  0.22%   183 1249s
   749   344 141326.231   12 2616 141630.244 141326.231  0.21%   183 1280s
   750   345 141329.605   10 2613 141630.244 141329.605  0.21%   183 1307s
   751   346 141332.861    5 2615 141630.244 141332.861  0.21%   183 1310s
   753   347 141338.076    4 2622 141630.244 141338.076  0.21%   182 1316s
   755   348 141630.244   97 1632 141630.244 141342.271  0.20%   182 1320s
   757   350 141630.244   28 1621 141630.244 141345.381  0.20%   181 1326s
   759   351 141346.890   40 2617 141630.244 141346.890  0.20%   181 1331s
   761   352 141349.623   15 2633 141630.244 141349.623  0.20%   180 1335s
   764   354 141630.244   32 2636 141630.244 141349.664  0.20%   180 1340s
   767   359 141350.794   25 2636 141630.244 141350.794  0.20%   202 1348s
   770   358 141447.625   26    - 141630.244 141350.988  0.20%   202 1369s
   771   359     cutoff   26      141630.244 141353.865  0.20%   202 1370s

Cutting planes:
  Gomory: 25
  Flow cover: 12
  Zero half: 73
  Lazy constraints: 3114

Explored 848 nodes (172552 simplex iterations) in 1373.94 seconds
Thread count was 4 (of 4 available processors)

Solution count 7: 141630 146149 151700 ... 486782
Pool objective bound 141630

Optimal solution found (tolerance 1.00e-04)
Best objective 1.416302435337e+05, best bound 1.416302435337e+05, gap 0.0000%

Gurobi 7.0.1 (win64) logging started 04/03/17 13:58:14

Changed value of parameter LogFile to log_LPIP_prov_code_7_8_9.log
   Prev: gurobi.log  Default: 

Gurobi 7.0.1 (win64) logging started 04/03/17 14:04:02

Changed value of parameter LogFile to log_LPIP_prov_code_7_8_9.log
   Prev: gurobi.log  Default: 

Gurobi 7.0.1 (win64) logging started 04/03/17 14:28:21

Changed value of parameter LogFile to log_LPIP_prov_code_7_8_9.log
   Prev: gurobi.log  Default: 

Gurobi 7.0.1 (win64) logging started 04/03/17 14:49:50

Changed value of parameter LogFile to log_LPIP_prov_code_7_8_9.log
   Prev: gurobi.log  Default: 

Gurobi 7.0.1 (win64) logging started 04/03/17 14:52:42

Changed value of parameter LogFile to log_LPIP_prov_code_7_8_9.log
   Prev: gurobi.log  Default: 

Gurobi 7.0.1 (win64) logging started 04/03/17 14:57:36

Changed value of parameter LogFile to log_LPIP_prov_code_7_8_9.log
   Prev: gurobi.log  Default: 

Gurobi 7.0.1 (win64) logging started 04/03/17 15:05:54

Changed value of parameter LogFile to log_LPIP_prov_code_7_8_9.log
   Prev: gurobi.log  Default: 

Gurobi 7.0.1 (win64) logging started 04/03/17 15:45:55

Changed value of parameter LogFile to log_LPIP_prov_code_7_8_9.log
   Prev: gurobi.log  Default: 

Gurobi 7.0.1 (win64) logging started 04/03/17 16:04:51

Changed value of parameter LogFile to log_LPIP_prov_code_7_8_9.log
   Prev: gurobi.log  Default: 
Optimize a model with 5920 rows, 297621 columns and 595676 nonzeros
Coefficient statistics:
  Matrix range     [1e+00, 3e+03]
  Objective range  [6e+00, 2e+07]
  Bounds range     [1e+00, 1e+00]
  RHS range        [1e+00, 3e+01]

Concurrent LP optimizer: dual simplex and barrier
Showing barrier log only...

Presolve removed 193 rows and 0 columns
Presolve time: 0.25s
Presolved: 5727 rows, 297621 columns, 595483 nonzeros

Ordering time: 0.01s

Barrier statistics:
 AA' NZ     : 2.981e+05
 Factor NZ  : 3.892e+05 (roughly 120 MBytes of memory)
 Factor Ops : 4.055e+07 (less than 1 second per iteration)
 Threads    : 1

Barrier performed 0 iterations in 0.44 seconds
Barrier solve interrupted - model solved by another algorithm


Solved with dual simplex
Solved in 56 iterations and 0.46 seconds
Optimal objective  4.898299517e+07
